(set-logic QF_S)
(declare-fun var_0xINPUT_291145 () String)
(assert (and (= (len var_0xINPUT_291145) 0) (= (len var_0xINPUT_291145) 0) (not (= var_0xINPUT_291145 "AA1ND6MEXd"))))
(check-sat var_0xINPUT_291145)